
n_res = 6;
rcap = [70, 73, 74, 68, 1394, 1306];
rtype = [1, 1, 1, 1, 2, 2];
n_tasks = 100;
modes =  [{1, 2, 3}, {4, 5, 6}, {7, 8, 9}, {10, 11, 12}, {13, 14, 15}, {16, 17, 18}, {19, 20, 21}, {22, 23, 24}, {25, 26, 27}, {28, 29, 30}, {31, 32, 33}, {34, 35, 36}, {37, 38, 39}, {40, 41, 42}, {43, 44, 45}, {46, 47, 48}, {49, 50, 51}, {52, 53, 54}, {55, 56, 57}, {58, 59, 60}, {61, 62, 63}, {64, 65, 66}, {67, 68, 69}, {70, 71, 72}, {73, 74, 75}, {76, 77, 78}, {79, 80, 81}, {82, 83, 84}, {85, 86, 87}, {88, 89, 90}, {91, 92, 93}, {94, 95, 96}, {97, 98, 99}, {100, 101, 102}, {103, 104, 105}, {106, 107, 108}, {109, 110, 111}, {112, 113, 114}, {115, 116, 117}, {118, 119, 120}, {121, 122, 123}, {124, 125, 126}, {127, 128, 129}, {130, 131, 132}, {133, 134, 135}, {136, 137, 138}, {139, 140, 141}, {142, 143, 144}, {145, 146, 147}, {148, 149, 150}, {151, 152, 153}, {154, 155, 156}, {157, 158, 159}, {160, 161, 162}, {163, 164, 165}, {166, 167, 168}, {169, 170, 171}, {172, 173, 174}, {175, 176, 177}, {178, 179, 180}, {181, 182, 183}, {184, 185, 186}, {187, 188, 189}, {190, 191, 192}, {193, 194, 195}, {196, 197, 198}, {199, 200, 201}, {202, 203, 204}, {205, 206, 207}, {208, 209, 210}, {211, 212, 213}, {214, 215, 216}, {217, 218, 219}, {220, 221, 222}, {223, 224, 225}, {226, 227, 228}, {229, 230, 231}, {232, 233, 234}, {235, 236, 237}, {238, 239, 240}, {241, 242, 243}, {244, 245, 246}, {247, 248, 249}, {250, 251, 252}, {253, 254, 255}, {256, 257, 258}, {259, 260, 261}, {262, 263, 264}, {265, 266, 267}, {268, 269, 270}, {271, 272, 273}, {274, 275, 276}, {277, 278, 279}, {280, 281, 282}, {283, 284, 285}, {286, 287, 288}, {289, 290, 291}, {292, 293, 294}, {295, 296, 297}, {298, 299, 300}];
succ =  [{57, 54, 50, 46, 45, 42, 39, 37, 35, 32, 22, 17, 8, 5}, {94, 92, 90, 69, 61, 60, 59, 58, 56, 55, 49, 47, 46, 45, 44, 43, 42, 41, 37, 33, 26}, {99, 97, 96, 95, 93, 69, 60, 57, 56, 55, 50, 46, 44, 43, 41, 40, 23}, {99, 98, 97, 91, 67, 58, 48, 43, 42, 27, 18}, {100, 97, 96, 93, 91, 71, 69, 67, 60, 58, 53, 48, 43, 40, 18}, {100, 99, 97, 93, 88, 86, 70, 67, 66, 64, 61, 60, 57, 56, 54, 52, 49, 48, 40, 36}, {99, 98, 95, 94, 69, 68, 65, 60, 52, 51, 49, 38, 37, 36, 35}, {100, 99, 98, 97, 95, 94, 91, 90, 88, 85, 84, 79, 71, 68, 67, 65, 64, 53, 52, 49, 48, 43, 38}, {100, 98, 94, 93, 90, 88, 70, 68, 67, 65, 64, 58, 55, 44, 43, 38}, {99, 97, 93, 91, 90, 88, 86, 68, 64, 60, 59, 58, 54, 44, 40}, {94, 90, 87, 86, 77, 70, 66, 59, 44, 39, 26}, {97, 95, 94, 93, 91, 90, 89, 87, 86, 85, 84, 82, 79, 71, 69, 67, 64, 59, 57, 56, 52, 49}, {100, 96, 94, 93, 92, 90, 88, 87, 86, 84, 83, 82, 80, 79, 71, 68, 67, 66, 64, 61, 59, 57, 52}, {99, 98, 93, 92, 91, 88, 87, 86, 85, 84, 82, 79, 77, 69, 65, 63, 49, 48}, {95, 94, 92, 90, 84, 77, 69, 66, 65, 63, 59, 52, 50, 42}, {99, 95, 94, 93, 91, 87, 85, 84, 67, 63, 58, 54, 45, 44}, {96, 93, 91, 90, 88, 82, 81, 80, 79, 71, 60, 59, 53, 43}, {95, 90, 88, 87, 85, 82, 70, 68, 65, 64, 38}, {98, 95, 92, 90, 89, 88, 87, 86, 84, 81, 80, 79, 69, 66, 63, 59, 53, 52}, {99, 95, 94, 91, 88, 87, 85, 84, 83, 81, 79, 77, 74, 59, 44}, {98, 97, 90, 88, 83, 82, 79, 78, 77, 64, 63, 60, 59, 56, 52}, {98, 95, 94, 92, 84, 83, 82, 79, 69, 64, 59, 52, 43}, {98, 90, 89, 88, 86, 85, 84, 83, 82, 78, 77, 73, 66, 64, 63, 59, 54}, {95, 94, 92, 89, 86, 84, 83, 81, 80, 79, 68, 67, 59, 57, 52}, {99, 96, 93, 90, 88, 87, 86, 84, 82, 81, 80, 78, 74, 73, 66, 59, 54}, {100, 99, 98, 97, 91, 88, 85, 84, 82, 81, 80, 79, 64, 57, 52}, {94, 90, 86, 85, 84, 82, 77, 70, 69, 63, 52, 49}, {92, 88, 82, 77, 61, 57, 52, 49, 48}, {97, 94, 90, 89, 87, 86, 84, 83, 82, 73, 59, 57, 54}, {96, 92, 91, 90, 85, 84, 83, 82, 78, 74, 67, 56, 52}, {100, 96, 89, 86, 85, 82, 79, 72, 63, 59, 46}, {98, 92, 90, 86, 84, 82, 81, 80, 77, 65, 63, 52}, {89, 88, 85, 81, 80, 79, 78, 77, 76, 75, 65, 64, 63}, {95, 91, 81, 75, 73, 72, 70, 68, 63, 60}, {97, 91, 88, 85, 83, 82, 80, 78, 76, 73, 72, 67}, {92, 91, 90, 83, 82, 81, 79, 77, 75, 73, 63}, {97, 93, 89, 86, 85, 83, 77, 73, 66, 63}, {92, 86, 83, 78, 74, 59, 56}, {93, 85, 84, 83, 82, 79, 78, 76, 73, 63}, {94, 92, 85, 84, 83, 82, 81, 78, 77, 75}, {91, 84, 81, 72, 70, 68, 63}, {96, 93, 89, 86, 83, 81, 80, 73, 72}, {89, 87, 86, 77, 76, 75, 73, 63}, {89, 82, 80, 78, 52}, {78, 74, 64, 52}, {88, 84, 80, 78, 77, 75, 73}, {85, 82, 76, 74, 73, 67}, {81, 80, 74, 73, 59}, {96, 83, 80, 73, 72}, {91, 79, 78, 76, 75}, {93, 84, 81, 74, 72}, {76, 75, 73, 72}, {78, 77, 75, 72}, {79, 75, 65}, {79, 73, 63}, {81, 80, 73}, {78, 63}, {74, 66}, {76, 75}, {87, 85}, {95, 72}, {87, 81}, {74}, {72}, {72}, {72}, {77}, {77}, {78}, {79}, {77}, {}, {}, {}, {}, {}, {}, {}, {}, {}, {}, {}, {}, {}, {}, {}, {}, {}, {}, {}, {}, {}, {}, {}, {}, {}, {}, {}, {}, {}];
n_opt = 300;
dur = [3, 13, 30, 1, 5, 25, 2, 7, 30, 7, 16, 29, 3, 4, 20, 9, 10, 26, 5, 15, 28, 2, 16, 28, 2, 3, 20, 4, 7, 27, 8, 9, 19, 6, 10, 15, 4, 6, 22, 3, 10, 21, 4, 6, 29, 4, 14, 20, 16, 19, 27, 15, 16, 28, 7, 14, 16, 3, 6, 10, 15, 16, 24, 2, 18, 20, 3, 10, 22, 8, 11, 24, 12, 17, 28, 1, 11, 18, 6, 11, 16, 1, 25, 30, 14, 15, 25, 11, 15, 26, 17, 27, 30, 3, 29, 30, 11, 12, 26, 5, 25, 26, 19, 20, 29, 8, 16, 18, 3, 18, 23, 4, 5, 19, 4, 6, 25, 8, 12, 18, 2, 12, 20, 1, 17, 27, 1, 16, 20, 6, 9, 15, 14, 21, 26, 8, 16, 29, 6, 12, 27, 3, 12, 20, 11, 13, 18, 4, 24, 28, 2, 10, 15, 2, 14, 29, 16, 22, 27, 15, 17, 29, 14, 19, 26, 3, 15, 28, 9, 15, 28, 3, 27, 29, 22, 23, 24, 5, 7, 9, 5, 15, 20, 18, 20, 23, 9, 10, 13, 8, 19, 25, 26, 29, 30, 5, 7, 27, 3, 24, 29, 11, 17, 26, 2, 10, 13, 4, 8, 23, 2, 5, 23, 6, 20, 26, 27, 28, 29, 9, 22, 26, 2, 5, 14, 8, 24, 25, 9, 26, 27, 7, 15, 29, 7, 14, 22, 4, 26, 30, 4, 7, 23, 2, 4, 7, 6, 7, 10, 18, 22, 29, 11, 14, 29, 2, 19, 30, 2, 12, 15, 14, 19, 29, 4, 15, 20, 5, 10, 14, 2, 3, 7, 2, 26, 28, 7, 8, 16, 18, 22, 25, 8, 9, 13, 1, 7, 27, 26, 27, 30, 9, 18, 25, 1, 10, 22, 4, 23, 28];
rreq = [|5, 3, 3, 1, 1, 1, 2, 2, 2, 5, 4, 4, 3, 2, 1, 4, 3, 2, 4, 2, 2, 2, 2, 2, 2, 2, 2, 5, 4, 3, 4, 4, 4, 5, 2, 2, 3, 2, 2, 1, 1, 1, 3, 1, 1, 1, 1, 1, 3, 2, 1, 5, 3, 3, 3, 2, 2, 1, 1, 1, 5, 3, 1, 4, 3, 1, 1, 1, 1, 3, 3, 2, 4, 4, 3, 4, 3, 1, 5, 2, 2, 4, 2, 2, 5, 5, 5, 1, 1, 1, 5, 3, 2, 3, 3, 3, 4, 3, 2, 1, 1, 1, 2, 2, 2, 2, 2, 2, 3, 3, 3, 3, 3, 3, 5, 5, 5, 4, 3, 3, 5, 3, 3, 1, 1, 1, 3, 2, 2, 3, 3, 2, 3, 2, 1, 4, 4, 2, 4, 4, 3, 3, 3, 3, 4, 3, 2, 2, 1, 1, 5, 4, 3, 4, 3, 3, 3, 2, 2, 4, 4, 3, 1, 1, 1, 5, 4, 4, 5, 2, 2, 5, 3, 1, 4, 4, 4, 2, 2, 1, 3, 3, 3, 1, 1, 1, 1, 1, 1, 3, 2, 2, 1, 1, 1, 3, 3, 2, 5, 3, 3, 3, 2, 1, 5, 4, 3, 1, 1, 1, 5, 3, 1, 3, 2, 2, 4, 2, 2, 4, 4, 4, 4, 4, 4, 1, 1, 1, 1, 1, 1, 4, 2, 2, 2, 2, 1, 5, 3, 2, 1, 1, 1, 1, 1, 1, 3, 3, 3, 3, 2, 2, 2, 2, 2, 5, 4, 4, 4, 2, 1, 4, 4, 4, 5, 4, 3, 4, 3, 1, 3, 2, 1, 3, 2, 2, 1, 1, 1, 2, 1, 1, 5, 5, 5, 3, 3, 3, 4, 3, 2, 3, 2, 2, 3, 3, 3, 3, 1, 1
 |3, 1, 1, 4, 4, 4, 1, 1, 1, 1, 1, 1, 5, 5, 5, 5, 4, 4, 3, 2, 2, 3, 3, 3, 3, 3, 3, 4, 3, 1, 1, 1, 1, 3, 3, 2, 4, 3, 1, 4, 3, 1, 2, 2, 2, 3, 3, 3, 4, 3, 3, 1, 1, 1, 4, 4, 4, 4, 3, 3, 5, 2, 2, 3, 1, 1, 1, 1, 1, 3, 3, 2, 3, 3, 2, 5, 3, 3, 3, 3, 3, 4, 2, 2, 4, 4, 2, 5, 4, 4, 4, 3, 3, 4, 4, 4, 3, 2, 1, 4, 4, 4, 4, 4, 4, 4, 4, 4, 3, 2, 1, 2, 1, 1, 2, 1, 1, 4, 2, 2, 3, 3, 3, 4, 2, 2, 1, 1, 1, 4, 4, 4, 4, 4, 4, 2, 1, 1, 5, 3, 2, 3, 3, 2, 2, 1, 1, 5, 4, 4, 2, 1, 1, 4, 4, 4, 2, 1, 1, 5, 5, 5, 3, 1, 1, 4, 3, 3, 4, 2, 1, 5, 4, 2, 3, 3, 3, 4, 4, 4, 4, 4, 3, 4, 4, 3, 5, 5, 5, 5, 5, 5, 5, 3, 3, 4, 3, 3, 4, 4, 4, 2, 2, 2, 3, 2, 2, 4, 4, 4, 3, 2, 2, 4, 3, 3, 1, 1, 1, 4, 4, 4, 3, 3, 2, 4, 3, 3, 3, 3, 3, 1, 1, 1, 1, 1, 1, 2, 2, 2, 2, 2, 2, 5, 5, 5, 2, 2, 1, 2, 1, 1, 3, 1, 1, 3, 3, 3, 5, 4, 3, 5, 4, 4, 3, 3, 3, 2, 1, 1, 5, 4, 4, 5, 4, 4, 4, 2, 2, 1, 1, 1, 4, 4, 4, 4, 3, 3, 5, 4, 4, 2, 2, 2, 3, 2, 1, 5, 4, 3
 |4, 4, 4, 5, 4, 3, 2, 2, 2, 4, 3, 3, 4, 3, 3, 4, 3, 2, 4, 2, 2, 3, 2, 2, 4, 4, 4, 3, 2, 2, 1, 1, 1, 4, 4, 4, 5, 4, 2, 4, 3, 2, 4, 3, 3, 3, 2, 1, 3, 3, 2, 1, 1, 1, 2, 2, 2, 4, 3, 3, 4, 3, 3, 4, 4, 4, 4, 3, 3, 2, 1, 1, 3, 2, 2, 5, 5, 5, 4, 4, 4, 4, 4, 3, 5, 2, 1, 3, 3, 3, 5, 3, 3, 5, 4, 4, 3, 2, 2, 4, 4, 4, 3, 3, 3, 4, 2, 1, 4, 4, 4, 3, 2, 2, 1, 1, 1, 3, 3, 3, 4, 4, 4, 2, 2, 1, 4, 4, 4, 5, 3, 3, 4, 3, 3, 5, 3, 3, 3, 2, 2, 2, 1, 1, 3, 1, 1, 2, 2, 2, 5, 3, 3, 2, 1, 1, 2, 2, 2, 4, 4, 4, 3, 3, 3, 1, 1, 1, 4, 4, 3, 4, 3, 3, 4, 4, 4, 2, 2, 2, 3, 3, 3, 2, 1, 1, 4, 3, 3, 1, 1, 1, 5, 5, 5, 4, 4, 2, 3, 3, 2, 2, 2, 2, 3, 2, 2, 4, 4, 2, 3, 3, 3, 2, 1, 1, 4, 2, 1, 3, 1, 1, 4, 3, 3, 4, 3, 2, 2, 1, 1, 5, 4, 4, 4, 4, 3, 3, 2, 2, 4, 3, 3, 5, 4, 2, 4, 3, 2, 4, 2, 2, 4, 3, 2, 1, 1, 1, 4, 3, 3, 2, 2, 2, 2, 2, 2, 4, 2, 2, 3, 3, 2, 3, 2, 2, 2, 2, 2, 3, 2, 2, 4, 3, 3, 2, 2, 2, 2, 2, 1, 4, 4, 4, 5, 3, 2, 3, 3, 3
 |3, 3, 3, 4, 4, 4, 2, 2, 2, 4, 4, 4, 1, 1, 1, 5, 4, 3, 1, 1, 1, 5, 4, 3, 4, 3, 3, 4, 4, 2, 4, 4, 4, 4, 4, 3, 4, 3, 1, 3, 2, 2, 4, 3, 2, 3, 2, 2, 4, 4, 3, 3, 3, 2, 3, 2, 1, 2, 2, 2, 2, 1, 1, 1, 1, 1, 2, 2, 2, 3, 2, 1, 4, 3, 2, 3, 3, 3, 4, 4, 4, 4, 3, 1, 2, 2, 2, 1, 1, 1, 4, 4, 3, 5, 3, 2, 2, 2, 1, 3, 2, 1, 4, 3, 2, 4, 4, 4, 4, 4, 3, 5, 5, 5, 3, 3, 2, 4, 2, 1, 3, 2, 2, 5, 5, 5, 4, 3, 2, 5, 4, 4, 2, 2, 1, 3, 1, 1, 4, 3, 2, 2, 1, 1, 4, 3, 2, 1, 1, 1, 4, 4, 4, 4, 3, 3, 4, 3, 3, 4, 2, 2, 4, 4, 4, 3, 2, 2, 2, 1, 1, 3, 3, 3, 4, 4, 4, 4, 3, 3, 2, 1, 1, 3, 2, 2, 5, 4, 4, 3, 1, 1, 3, 3, 1, 4, 4, 3, 4, 3, 2, 3, 2, 2, 3, 3, 3, 5, 4, 3, 3, 2, 2, 4, 3, 2, 2, 1, 1, 2, 1, 1, 4, 4, 4, 4, 3, 2, 5, 4, 3, 2, 2, 1, 2, 1, 1, 5, 4, 3, 4, 3, 3, 2, 2, 2, 1, 1, 1, 4, 2, 2, 5, 4, 4, 2, 2, 2, 4, 3, 2, 4, 4, 4, 1, 1, 1, 2, 1, 1, 3, 3, 3, 4, 2, 2, 2, 2, 2, 5, 3, 2, 3, 3, 3, 5, 3, 3, 3, 2, 2, 5, 5, 5, 3, 1, 1, 3, 2, 2
 |21, 16, 15, 25, 19, 13, 26, 21, 18, 17, 10, 7, 15, 12, 9, 22, 12, 10, 22, 17, 15, 20, 19, 16, 22, 19, 15, 7, 7, 4, 24, 22, 21, 21, 11, 5, 16, 15, 14, 25, 20, 14, 27, 23, 22, 19, 18, 17, 19, 17, 14, 10, 9, 2, 26, 18, 10, 16, 16, 16, 25, 22, 17, 15, 14, 14, 10, 10, 10, 5, 4, 3, 19, 18, 18, 21, 20, 20, 25, 19, 17, 17, 15, 14, 19, 13, 10, 23, 19, 14, 26, 26, 25, 20, 15, 9, 27, 25, 25, 4, 2, 2, 15, 12, 7, 16, 12, 8, 23, 22, 21, 25, 21, 18, 16, 13, 13, 19, 12, 1, 22, 18, 12, 28, 16, 16, 28, 22, 16, 5, 5, 5, 15, 12, 8, 26, 23, 19, 25, 19, 12, 15, 14, 14, 25, 15, 10, 11, 10, 10, 23, 20, 9, 28, 21, 18, 21, 15, 13, 11, 8, 6, 25, 14, 1, 18, 12, 8, 2, 2, 2, 15, 12, 8, 10, 7, 5, 12, 6, 4, 29, 23, 16, 17, 12, 10, 19, 18, 11, 4, 4, 4, 25, 17, 12, 26, 21, 19, 25, 20, 12, 16, 15, 8, 25, 24, 20, 25, 20, 16, 22, 22, 22, 23, 21, 14, 23, 23, 23, 24, 23, 23, 15, 13, 6, 22, 13, 13, 28, 27, 22, 6, 5, 5, 21, 18, 17, 10, 10, 8, 3, 3, 3, 20, 15, 15, 10, 9, 9, 18, 16, 5, 25, 23, 19, 21, 17, 15, 9, 7, 2, 13, 9, 5, 4, 4, 4, 26, 17, 15, 24, 16, 15, 26, 22, 19, 24, 22, 21, 25, 22, 18, 18, 14, 6, 24, 19, 13, 12, 11, 8, 28, 20, 14, 9, 8, 5, 22, 19, 15
 |12, 12, 12, 25, 25, 23, 25, 20, 6, 23, 20, 16, 2, 2, 2, 27, 16, 6, 9, 7, 5, 22, 21, 20, 21, 16, 11, 19, 10, 7, 9, 5, 5, 14, 12, 12, 11, 10, 8, 29, 24, 22, 20, 19, 14, 30, 20, 13, 28, 18, 12, 13, 13, 12, 20, 18, 14, 5, 4, 1, 24, 20, 15, 3, 2, 2, 20, 18, 5, 18, 18, 18, 23, 14, 9, 29, 27, 26, 6, 6, 6, 19, 17, 11, 25, 24, 21, 20, 20, 20, 27, 20, 18, 13, 9, 7, 7, 5, 3, 20, 10, 9, 21, 19, 16, 25, 15, 12, 7, 5, 2, 28, 24, 23, 24, 17, 12, 19, 12, 7, 4, 4, 4, 20, 19, 10, 28, 28, 28, 17, 14, 7, 9, 8, 5, 20, 20, 20, 12, 11, 11, 13, 8, 6, 14, 12, 11, 7, 6, 5, 28, 20, 18, 18, 17, 16, 22, 22, 22, 24, 21, 18, 16, 14, 12, 21, 12, 8, 27, 19, 16, 17, 15, 13, 20, 18, 17, 2, 2, 1, 16, 12, 10, 8, 6, 6, 16, 7, 7, 14, 9, 5, 9, 5, 4, 19, 16, 13, 7, 7, 5, 17, 12, 11, 9, 6, 4, 9, 8, 7, 28, 26, 21, 26, 24, 20, 17, 7, 4, 14, 11, 10, 20, 15, 13, 22, 19, 18, 18, 17, 17, 21, 17, 15, 13, 8, 7, 18, 17, 16, 13, 8, 6, 19, 11, 4, 19, 14, 6, 10, 6, 1, 26, 19, 11, 14, 10, 4, 25, 17, 15, 19, 19, 15, 18, 16, 14, 20, 20, 20, 6, 5, 5, 9, 9, 8, 19, 18, 18, 24, 24, 23, 17, 15, 14, 19, 12, 5, 22, 21, 20, 27, 26, 24, 23, 23, 15, 8, 6, 4|];